36 38
1 20
1 20
1 20
1 20
1 20
1 20
1 20
1 20
1 20
1 20
1 20
1 20
1 20
1 20
1 20
1 20
1 20
1 20
39 20
39 20
39 20
39 20
39 20
39 20
39 20
39 20
39 20
39 20
39 20
39 20
39 20
39 20
39 20
39 20
39 20
39 20
